Geometry = GenFormat {
47 C
C N F H
1   1  -3.2396524946E-01   2.2070416967E+00  -2.5352186058E+00
2   1  -1.2930440212E+00   2.5058370275E+00  -1.4208942481E+00
3   1  -1.8652142542E+00   3.7808887280E+00  -1.3850095050E+00
4   1  -2.8469491183E+00   4.0857956488E+00  -4.4962272975E-01
5   1  -3.3151206313E+00   3.1218484606E+00   4.6156248036E-01
6   1  -4.4169471117E+00   3.5192976187E+00   1.3613519755E+00
7   1  -4.2067304589E+00   4.4715403872E+00   2.3731459700E+00
8   1  -5.2470653145E+00   4.8586544530E+00   3.2211045785E+00
9   1  -6.5147899942E+00   4.3024464643E+00   3.0670425335E+00
10   1  -6.7437902045E+00   3.3620443603E+00   2.0652047589E+00
11   1  -5.7034987136E+00   2.9763939788E+00   1.2165531972E+00
12   1  -2.7426448551E+00   1.8155207967E+00   4.5004721595E-01
13   1  -3.2499010099E+00   7.5502389982E-01   1.3603062978E+00
14   1  -3.8174632166E+00  -4.2388892766E-01   8.4653464362E-01
15   1  -4.3082434424E+00  -1.4197559497E+00   1.6951909713E+00
16   1  -4.2466330211E+00  -1.2522671877E+00   3.0758798657E+00
17   1  -3.6941813959E+00  -9.0912002737E-02   3.6082805651E+00
18   1  -3.2002411462E+00   9.0169781825E-01   2.7577773288E+00
19   1  -1.6920159117E+00   1.5293052266E+00  -4.7644440326E-01
20   2  -1.1145850153E+00   2.3484688873E-01  -5.3928491626E-01
21   2   0.0000000000E+00   0.0000000000E+00   0.0000000000E+00
22   1   5.7098500668E-01  -1.2866993939E+00  -6.4091536701E-02
23   1   3.1151222491E-01  -2.2106556627E+00   9.5604190605E-01
24   1   8.2558516111E-01  -3.5095357196E+00   8.9896826786E-01
25   1   1.5847130596E+00  -3.9107269226E+00  -1.9899654118E-01
26   1   1.8128974251E+00  -3.0183246205E+00  -1.2446488633E+00
27   1   1.2952470951E+00  -1.7249876749E+00  -1.1777739924E+00
28   3   1.4960521581E+00  -9.0860886532E-01  -2.2230744931E+00
29   4   2.5384310297E-01   1.2945403283E+00  -2.3718975028E+00
30   4  -8.7222082203E-01   2.0926563669E+00  -3.4761705797E+00
31   4   3.9447968299E-01   3.0270356072E+00  -2.6424953316E+00
32   4  -1.5631286016E+00   4.5391463193E+00  -2.1046709022E+00
33   4  -3.2864586860E+00   5.0826168834E+00  -4.5833986070E-01
34   4  -3.2212423638E+00   4.9120594605E+00   2.5093855251E+00
35   4  -5.0665472995E+00   5.5928926093E+00   4.0016066283E+00
36   4  -7.3246456579E+00   4.6009988784E+00   3.7273692349E+00
37   4  -7.7312690399E+00   2.9250393062E+00   1.9430389369E+00
38   4  -5.9001266766E+00   2.2406245126E+00   4.3940564888E-01
39   4  -3.8803759048E+00  -5.7409707881E-01  -2.2961250779E-01
40   4  -4.7390380909E+00  -2.3244457797E+00   1.2745323300E+00
41   4  -4.6313618157E+00  -2.0251765088E+00   3.7356503597E+00
42   4  -3.6494353367E+00   4.7400131021E-02   4.6850332434E+00
43   4  -2.7710265619E+00   1.8002936499E+00   3.1958505653E+00
44   4  -3.0084720753E-01  -1.9084588397E+00   1.8028421474E+00
45   4   6.2411094280E-01  -4.2065227973E+00   1.7088791211E+00
46   4   1.9826243340E+00  -4.9212782574E+00  -2.4764985450E-01
47   4   2.3805911881E+00  -3.3212917426E+00  -2.1187632871E+00
}
Driver = ConjugateGradient {
  MaxSteps = 20000
  AppendGeometries = Yes
  OutputPrefix = 'opt'
  LatticeOpt = No
  MovedAtoms = "1:-1"
  MaxAtomStep = 0.20000000000000001
  MaxForceComponent = 1.0000000000000000E-004
  ConvergentForcesOnly = Yes
  Constraints = {}
}
Hamiltonian = DFTB {
  Charge = 0
  SCC = Yes
  SpinPolarisation = Colinear {
    UnpairedElectrons = 0
    RelaxTotalSpin = No
    InitialSpins = {}
  }
  SpinConstants = {
    H = -0.072
    C = -0.023
    N = -0.026
    F = -0.028
    ShellResolvedSpin = No
  }
  ThirdOrderFull = Yes
  HCorrection = Damping {
    Exponent = 4.05
  }
  HubbardDerivs = {
    H = -0.1857
    C = -0.1492
    N = -0.1535
    F = -0.1623
  }
  MaxAngularMomentum = {
    H = "s"
    C = "p"
    N = "p"
    F = "p"
  }
  SlaterKosterFiles = Type2FileNames {
    Prefix = "../dftb_bin/3ob-3-1/"
    Separator = '-'
    Suffix = '.skf'
    LowerCaseTypeName = No
  }
  NonAufbau = No
  SpinPurify = Yes
  MOM = No
  GroundGuess = No
  PolynomialRepulsive = {}
  OrbitalResolvedSCC = No
  ReadInitialCharges = No
  InitialCharges = {}
  SCCTolerance = 1.0000000000000001E-005
  Mixer = Broyden {
    MixingParameter = 0.20000000000000001
    InverseJacobiWeight = 1.0000000000000000E-002
    MinimalWeight = 1.0000000000000000
    MaximalWeight = 100000.00000000000
    WeightFactor = 1.0000000000000000E-002
  }
  ElectricField = {}
  Filling = Fermi {
    Temperature = 0.0000000000000000
  }
  Eigensolver = RelativelyRobust {}
  MaxSCCIterations = 100
  Dispersion = {}
  ThirdOrder = No
  Differentiation = FiniteDiff {
    Delta = 1.2207031250000000E-004
  }
  ForceEvaluation = "Traditional"
}
ParserOptions = {
  ParserVersion = 6
  WriteHSDInput = Yes
  WriteXMLInput = No
  StopAfterParsing = No
  IgnoreUnprocessedNodes = No
}
Analysis = {
  ProjectStates = {}
  MullikenAnalysis = Yes
  AtomResolvedEnergies = No
  WriteEigenvectors = No
  WriteBandOut = Yes
  CalculateForces = No
}
ExcitedState = {}
Options = {
  WriteDetailedOut = Yes
  WriteAutotestTag = No
  WriteDetailedXML = No
  WriteResultsTag = No
  RandomSeed = 0
  WriteHS = No
  WriteRealHS = No
  MinimiseMemoryUsage = No
  ShowFoldedCoords = No
  TimingVerbosity = -1
  WriteChargesAsText = No
}
