Geometry = GenFormat {
35  C
C  O  N  H
1 1    0.6692103804E+01   -0.1487760546E+01    0.3026378724E+01
2 2    0.6337363408E+01   -0.4428853369E+00    0.2137223441E+01
3 1    0.5073172241E+01   -0.4031334448E+00    0.1633551121E+01
4 1    0.4077160545E+01   -0.1341780890E+01    0.1955909802E+01
5 1    0.2790775728E+01   -0.1232415419E+01    0.1394540204E+01
6 1    0.1818210385E+01   -0.2237222896E+01    0.1749978142E+01
7 3    0.1094778127E+01   -0.3068069981E+01    0.2094684142E+01
8 1    0.2477365991E+01   -0.1704277425E+00    0.5085674590E+00
9 3    0.1274518868E+01   -0.1807298093E+00   -0.2716919954E+00
10 3    0.1211533725E+00   -0.1396443540E+00    0.2307177285E+00
11 1   -0.8021756721E-01    0.1865030304E+00    0.1607722455E+01
12 1    0.4610342046E+00    0.1374028191E+01    0.2134141313E+01
13 1    0.1411388243E+00    0.1770507665E+01    0.3431281535E+01
14 1   -0.7153368745E+00    0.9938056714E+00    0.4218241419E+01
15 1   -0.1279340371E+01   -0.1680815345E+00    0.3693726196E+01
16 1   -0.9926029468E+00   -0.5769911631E+00    0.2380719554E+01
17 1   -0.1622915915E+01   -0.1792021505E+01    0.1799806752E+01
18 2   -0.1489274867E+01   -0.2174432609E+01    0.6407265631E+00
19 2   -0.2439621866E+01   -0.2486912721E+01    0.2650432063E+01
20 1    0.3503739559E+01    0.7547705444E+00    0.1677086068E+00
21 1    0.3183155214E+01    0.1882125936E+01   -0.7464902991E+00
22 2    0.2051782261E+01    0.2178247021E+01   -0.1122844103E+01
23 2    0.4251466402E+01    0.2627768110E+01   -0.1157242001E+01
24 1    0.4777089322E+01    0.6451259119E+00    0.7426909683E+00
25 4    0.6586755224E+01   -0.2472817374E+01    0.2547012734E+01
26 4    0.6071084525E+01   -0.1467444247E+01    0.3934877944E+01
27 4    0.7737892773E+01   -0.1337164971E+01    0.3306020621E+01
28 4    0.4279882990E+01   -0.2167117964E+01    0.2630901412E+01
29 4    0.1102459360E+01    0.1989956229E+01    0.1509283613E+01
30 4    0.5600003000E+00    0.2690594679E+01    0.3832172543E+01
31 4   -0.9529571671E+00    0.1303888545E+01    0.5232246345E+01
32 4   -0.1958966897E+01   -0.7656616819E+00    0.4295313927E+01
33 4   -0.2783687233E+01   -0.3263035741E+01    0.2180392597E+01
34 4    0.3935124831E+01    0.3329843308E+01   -0.1747904300E+01
35 4    0.5543449380E+01    0.1372341523E+01    0.4914202744E+00
}
Hamiltonian = DFTB {
  Charge = 0
  SCC = Yes
  NonAufbau = Yes
  GroundGuess = Yes
  SpinPolarisation = Colinear {
    UnpairedElectrons = 0
    RelaxTotalSpin = No
    InitialSpins = {}
  }
  SpinConstants = {
    H = -0.072
    C = -0.023
    N = -0.026
    O = -0.028
    ShellResolvedSpin = No
  }
  ThirdOrderFull = Yes
  HCorrection = Damping {
    Exponent = 4.05
  }
  HubbardDerivs = {
    H = -0.1857
    C = -0.1492
    N = -0.1535
    O = -0.1575
  }
  MaxAngularMomentum = {
    H = "s"
    C = "p"
    N = "p"
    O = "p"
  }
  SlaterKosterFiles = Type2FileNames {
    Prefix = "../dftb_bin/3ob-3-1/"
    Separator = '-'
    Suffix = '.skf'
    LowerCaseTypeName = No
  }
  SpinPurify = Yes
  MOM = No
  PolynomialRepulsive = {}
  OrbitalResolvedSCC = No
  ReadInitialCharges = No
  InitialCharges = {}
  SCCTolerance = 1.0000000000000001E-005
  Mixer = Broyden {
    MixingParameter = 0.20000000000000001
    InverseJacobiWeight = 1.0000000000000000E-002
    MinimalWeight = 1.0000000000000000
    MaximalWeight = 100000.00000000000
    WeightFactor = 1.0000000000000000E-002
  }
  ElectricField = {}
  Filling = Fermi {
    Temperature = 0.0000000000000000
  }
  Eigensolver = RelativelyRobust {}
  MaxSCCIterations = 100
  Dispersion = {}
  ThirdOrder = No
  Differentiation = FiniteDiff {
    Delta = 1.2207031250000000E-004
  }
  ForceEvaluation = "Traditional"
}
ParserOptions = {
  ParserVersion = 6
  WriteHSDInput = Yes
  WriteXMLInput = No
  StopAfterParsing = No
  IgnoreUnprocessedNodes = No
}
Driver = {}
Analysis = {
  ProjectStates = {}
  MullikenAnalysis = Yes
  AtomResolvedEnergies = No
  WriteEigenvectors = No
  WriteBandOut = Yes
  CalculateForces = No
}
ExcitedState = {}
Options = {
  WriteDetailedOut = Yes
  WriteAutotestTag = No
  WriteDetailedXML = No
  WriteResultsTag = No
  RestartFrequency = 20
  RandomSeed = 0
  WriteHS = No
  WriteRealHS = No
  MinimiseMemoryUsage = No
  ShowFoldedCoords = No
  TimingVerbosity = -1
  WriteChargesAsText = No
}
