Geometry = GenFormat {
35  C
C  O  N  F  H
1 1   -0.3533418699E+01    0.1857050062E+01    0.5785751472E+00
2 2   -0.3549596014E+01    0.2216835174E+01   -0.7889595396E+00
3 1   -0.2782667398E+01    0.1600379187E+01   -0.1715373856E+01
4 1   -0.1702689025E+01    0.7050760717E+00   -0.1461295319E+01
5 3   -0.1359919854E+01    0.3147604116E+00   -0.1235165123E+00
6 3   -0.1911008929E+00   -0.2069951437E+00   -0.1205454754E-01
7 1    0.2661272231E+00   -0.6324875427E+00    0.1257389330E+01
8 1    0.5228394079E+00    0.3026115259E+00    0.2295429767E+01
9 1    0.1623650897E+00    0.1755093513E+01    0.2138290809E+01
10 1    0.1122571314E+01   -0.1489305791E+00    0.3473753431E+01
11 1    0.1478093995E+01   -0.1491776014E+01    0.3641566162E+01
12 1    0.1261079759E+01   -0.2400931960E+01    0.2610408777E+01
13 1    0.6731200550E+00   -0.1989139530E+01    0.1399793097E+01
14 1    0.4414035427E+00   -0.2906659791E+01    0.2397196621E+00
15 2   -0.1378126069E+00   -0.2548135545E+01   -0.7807525483E+00
16 2    0.9298299692E+00   -0.4177256325E+01    0.3361171407E+00
17 1   -0.1018009002E+01    0.1317360866E+00   -0.2557123172E+01
18 1   -0.1334437987E+01    0.4513372303E+00   -0.3874096069E+01
19 1   -0.2360384794E+01    0.1375128273E+01   -0.4111559665E+01
20 4   -0.2667039431E+01    0.1700793101E+01   -0.5369162579E+01
21 1   -0.3090370945E+01    0.1956457910E+01   -0.3059859908E+01
22 1   -0.4155811893E+01    0.2887709906E+01   -0.3333162537E+01
23 3   -0.5007863659E+01    0.3635268369E+01   -0.3551476451E+01
24 5   -0.4304433867E+01    0.2455678432E+01    0.1074275679E+01
25 5   -0.2559741764E+01    0.2078996694E+01    0.1041378976E+01
26 5   -0.3764633480E+01    0.7918973584E+00    0.7134754566E+00
27 5    0.3215019008E+00    0.2096066617E+01    0.1117153315E+01
28 5   -0.8901850077E+00    0.1929834629E+01    0.2375740568E+01
29 5    0.7518835224E+00    0.2376873413E+01    0.2808488756E+01
30 5    0.1313532863E+01    0.5600157577E+00    0.4276240618E+01
31 5    0.1931849612E+01   -0.1823473978E+01    0.4570605019E+01
32 5    0.1551158961E+01   -0.3441543686E+01    0.2754940315E+01
33 5    0.1385122988E+01   -0.4343553999E+01    0.1171541198E+01
34 5   -0.2442508326E+00   -0.6002444232E+00   -0.2342334350E+01
35 5   -0.8103678992E+00   -0.8150290370E-02   -0.4705343948E+01
}
Hamiltonian = DFTB {
  Charge = 0
  SCC = Yes
  NonAufbau = Yes
  GroundGuess = Yes
  SpinPolarisation = Colinear {
    UnpairedElectrons = 0
    RelaxTotalSpin = No
    InitialSpins = {}
  }
  SpinConstants = {
    H = -0.072
    C = -0.023
    N = -0.026
    O = -0.028
    F = -0.028
    ShellResolvedSpin = No
  }
  ThirdOrderFull = Yes
  HCorrection = Damping {
    Exponent = 4.05
  }
  HubbardDerivs = {
    H = -0.1857
    C = -0.1492
    N = -0.1535
    O = -0.1575
    F = -0.1623
  }
  MaxAngularMomentum = {
    H = "s"
    C = "p"
    N = "p"
    O = "p"
    F = "p"
  }
  SlaterKosterFiles = Type2FileNames {
    Prefix = "../dftb_bin/3ob-3-1/"
    Separator = '-'
    Suffix = '.skf'
    LowerCaseTypeName = No
  }
  SpinPurify = Yes
  MOM = No
  PolynomialRepulsive = {}
  OrbitalResolvedSCC = No
  ReadInitialCharges = No
  InitialCharges = {}
  SCCTolerance = 1.0000000000000001E-005
  Mixer = Broyden {
    MixingParameter = 0.20000000000000001
    InverseJacobiWeight = 1.0000000000000000E-002
    MinimalWeight = 1.0000000000000000
    MaximalWeight = 100000.00000000000
    WeightFactor = 1.0000000000000000E-002
  }
  ElectricField = {}
  Filling = Fermi {
    Temperature = 0.0000000000000000
  }
  Eigensolver = RelativelyRobust {}
  MaxSCCIterations = 100
  Dispersion = {}
  ThirdOrder = No
  Differentiation = FiniteDiff {
    Delta = 1.2207031250000000E-004
  }
  ForceEvaluation = "Traditional"
}
ParserOptions = {
  ParserVersion = 6
  WriteHSDInput = Yes
  WriteXMLInput = No
  StopAfterParsing = No
  IgnoreUnprocessedNodes = No
}
Driver = {}
Analysis = {
  ProjectStates = {}
  MullikenAnalysis = Yes
  AtomResolvedEnergies = No
  WriteEigenvectors = No
  WriteBandOut = Yes
  CalculateForces = No
}
ExcitedState = {}
Options = {
  WriteDetailedOut = Yes
  WriteAutotestTag = No
  WriteDetailedXML = No
  WriteResultsTag = No
  RestartFrequency = 20
  RandomSeed = 0
  WriteHS = No
  WriteRealHS = No
  MinimiseMemoryUsage = No
  ShowFoldedCoords = No
  TimingVerbosity = -1
  WriteChargesAsText = No
}
