Geometry = GenFormat {
36 C
C O N F H
1   1  -6.5557513963E+00   2.3925589344E+00  -1.5453118833E+00
2   2  -5.7441988157E+00   1.4651715559E+00  -2.2561986148E+00
3   1  -4.6260430131E+00   9.7752000152E-01  -1.6323239360E+00
4   1  -4.2579559454E+00   1.2878636527E+00  -3.1985916226E-01
5   1  -3.0891347156E+00   7.5335181044E-01   2.3071002752E-01
6   1  -2.2614792259E+00  -9.2719834057E-02  -5.1531742385E-01
7   3  -1.0963722574E+00  -6.1276376900E-01   9.0875383873E-02
8   3   0.0000000000E+00   0.0000000000E+00   0.0000000000E+00
9   1   1.1613275469E+00  -5.2479310931E-01   6.0808825497E-01
10   1   1.4618441723E+00  -1.5232152340E-01   1.9281684546E+00
11   1   2.5896338981E+00  -6.5713039925E-01   2.5625519360E+00
12   4   2.8693935728E+00  -2.6914600594E-01   3.8128036104E+00
13   1   3.4254735317E+00  -1.5574543092E+00   1.9206513963E+00
14   1   3.1153826357E+00  -1.9734972696E+00   6.2557421547E-01
15   1   1.9776293122E+00  -1.4749511116E+00  -3.9949509501E-02
16   1   1.7048736510E+00  -2.0378920524E+00  -1.3987132712E+00
17   2   2.3630346526E+00  -2.9620556550E+00  -1.8530819352E+00
18   2   6.8762862898E-01  -1.4904379650E+00  -2.0935418427E+00
19   1  -2.6632315355E+00  -4.5059067451E-01  -1.8123329576E+00
20   2  -1.8559566529E+00  -1.2714981036E+00  -2.5628911171E+00
21   1  -2.1722033193E+00  -2.6482974539E+00  -2.3379253459E+00
22   1  -3.8201789837E+00   1.0441267214E-01  -2.3858750314E+00
23   1  -4.1763546361E+00  -2.2082346948E-01  -3.7389785162E+00
24   3  -4.4605382157E+00  -5.0351717111E-01  -4.8290607149E+00
25   5  -6.9942423445E+00   1.9291104852E+00  -6.5563109128E-01
26   5  -7.3765474716E+00   2.6918297329E+00  -2.2041128090E+00
27   5  -5.9905959404E+00   3.2937259020E+00  -1.2857980862E+00
28   5  -4.8562713569E+00   1.9453603291E+00   3.0410630434E-01
29   5  -2.8150263347E+00   1.0057556154E+00   1.2535584205E+00
30   5   8.1957623481E-01   5.3817567236E-01   2.4663405664E+00
31   5   4.3025945860E+00  -1.9433811953E+00   2.4319672354E+00
32   5   3.7630450422E+00  -2.6999625660E+00   1.3427792406E-01
33   5   2.6057657471E-01  -7.2511960568E-01  -1.6564864776E+00
34   5  -3.2191856279E+00  -2.8617042025E+00  -2.5783594879E+00
35   5  -1.9542976891E+00  -2.9390406736E+00  -1.3050830507E+00
36   5  -1.5412002329E+00  -3.2481511307E+00  -3.0002488479E+00
}
Driver = ConjugateGradient {
  MaxSteps = 20000
  AppendGeometries = Yes
  OutputPrefix = 'opt'
  LatticeOpt = No
  MovedAtoms = "1:-1"
  MaxAtomStep = 0.20000000000000001
  MaxForceComponent = 1.0000000000000000E-004
  ConvergentForcesOnly = Yes
  Constraints = {}
}
Hamiltonian = DFTB {
  Charge = 0
  SCC = Yes
  SpinPolarisation = Colinear {
    UnpairedElectrons = 0
    RelaxTotalSpin = No
    InitialSpins = {}
  }
  SpinConstants = {
    H = -0.072
    C = -0.023
    N = -0.026
    O = -0.028
    F = -0.028
    ShellResolvedSpin = No
  }
  ThirdOrderFull = Yes
  HCorrection = Damping {
    Exponent = 4.05
  }
  HubbardDerivs = {
    H = -0.1857
    C = -0.1492
    N = -0.1535
    O = -0.1575
    F = -0.1623
  }
  MaxAngularMomentum = {
    H = "s"
    C = "p"
    N = "p"
    O = "p"
    F = "p"
  }
  SlaterKosterFiles = Type2FileNames {
    Prefix = "../dftb_bin/3ob-3-1/"
    Separator = '-'
    Suffix = '.skf'
    LowerCaseTypeName = No
  }
  NonAufbau = No
  SpinPurify = Yes
  MOM = No
  GroundGuess = No
  PolynomialRepulsive = {}
  OrbitalResolvedSCC = No
  ReadInitialCharges = No
  InitialCharges = {}
  SCCTolerance = 1.0000000000000001E-005
  Mixer = Broyden {
    MixingParameter = 0.20000000000000001
    InverseJacobiWeight = 1.0000000000000000E-002
    MinimalWeight = 1.0000000000000000
    MaximalWeight = 100000.00000000000
    WeightFactor = 1.0000000000000000E-002
  }
  ElectricField = {}
  Filling = Fermi {
    Temperature = 0.0000000000000000
  }
  Eigensolver = RelativelyRobust {}
  MaxSCCIterations = 100
  Dispersion = {}
  ThirdOrder = No
  Differentiation = FiniteDiff {
    Delta = 1.2207031250000000E-004
  }
  ForceEvaluation = "Traditional"
}
ParserOptions = {
  ParserVersion = 6
  WriteHSDInput = Yes
  WriteXMLInput = No
  StopAfterParsing = No
  IgnoreUnprocessedNodes = No
}
Analysis = {
  ProjectStates = {}
  MullikenAnalysis = Yes
  AtomResolvedEnergies = No
  WriteEigenvectors = No
  WriteBandOut = Yes
  CalculateForces = No
}
ExcitedState = {}
Options = {
  WriteDetailedOut = Yes
  WriteAutotestTag = No
  WriteDetailedXML = No
  WriteResultsTag = No
  RandomSeed = 0
  WriteHS = No
  WriteRealHS = No
  MinimiseMemoryUsage = No
  ShowFoldedCoords = No
  TimingVerbosity = -1
  WriteChargesAsText = No
}
