Geometry = GenFormat {
31  C
C  O  F  N  H
1 1   -0.4629305683E+01    0.3004031495E+00    0.1502890799E+01
2 2   -0.3392278552E+01    0.2499570538E+00    0.8074414435E+00
3 1   -0.3177368109E+01    0.9899540965E+00   -0.3091781413E+00
4 1   -0.4090315263E+01    0.1904682359E+01   -0.8914853027E+00
5 3   -0.5319343787E+01    0.2101034143E+01   -0.3550189019E+00
6 1   -0.3767385927E+01    0.2628385907E+01   -0.2036429008E+01
7 1   -0.2509858175E+01    0.2458911427E+01   -0.2639001121E+01
8 1   -0.1588741325E+01    0.1576947134E+01   -0.2090064618E+01
9 1   -0.1901392940E+01    0.8387933289E+00   -0.9233788859E+00
10 4   -0.1022578801E+01   -0.1136094643E+00   -0.3472367621E+00
11 4    0.1989116993E+00   -0.6274595123E-01   -0.7774928154E+00
12 1    0.1070469005E+01   -0.1085976840E+01   -0.3007093167E+00
13 1    0.6077959972E+00   -0.2399129088E+01   -0.2663438019E-01
14 3   -0.6956169758E+00   -0.2679034987E+01   -0.1470779259E+00
15 1    0.1471699408E+01   -0.3434607010E+01    0.3310900920E+00
16 1    0.2840219450E+01   -0.3168667732E+01    0.4359739292E+00
17 1    0.3325270596E+01   -0.1890026365E+01    0.1645563102E+00
18 1    0.2470587379E+01   -0.8414499170E+00   -0.2175646392E+00
19 1    0.3142437720E+01    0.4949382373E+00   -0.4669225823E+00
20 2    0.4355900777E+01    0.6202937109E+00   -0.3611845278E+00
21 2    0.2362715513E+01    0.1550607888E+01   -0.8109154541E+00
22 5   -0.4547914327E+01   -0.3957961832E+00    0.2343067792E+01
23 5   -0.5461327541E+01   -0.1455574362E-01    0.8599564688E+00
24 5   -0.4826075308E+01    0.1307055442E+01    0.1894392974E+01
25 5   -0.4497805092E+01    0.3314355095E+01   -0.2453435832E+01
26 5   -0.2265111375E+01    0.3017005900E+01   -0.3537098651E+01
27 5   -0.6205769528E+00    0.1430294833E+01   -0.2560480114E+01
28 5    0.1073993650E+01   -0.4425415116E+01    0.5289922703E+00
29 5    0.3524453811E+01   -0.3960507851E+01    0.7267662331E+00
30 5    0.4387361662E+01   -0.1672572897E+01    0.2403913470E+00
31 5    0.1416740471E+01    0.1298872640E+01   -0.8890735694E+00
}
Hamiltonian = DFTB {
  Charge = 0
  SCC = Yes
  NonAufbau = Yes
  GroundGuess = Yes
  SpinPolarisation = Colinear {
    UnpairedElectrons = 0
    RelaxTotalSpin = No
    InitialSpins = {}
  }
  SpinConstants = {
    H = -0.072
    C = -0.023
    N = -0.026
    O = -0.028
    F = -0.028
    ShellResolvedSpin = No
  }
  ThirdOrderFull = Yes
  HCorrection = Damping {
    Exponent = 4.05
  }
  HubbardDerivs = {
    H = -0.1857
    C = -0.1492
    N = -0.1535
    O = -0.1575
    F = -0.1623
  }
  MaxAngularMomentum = {
    H = "s"
    C = "p"
    N = "p"
    O = "p"
    F = "p"
  }
  SlaterKosterFiles = Type2FileNames {
    Prefix = "../dftb_bin/3ob-3-1/"
    Separator = '-'
    Suffix = '.skf'
    LowerCaseTypeName = No
  }
  SpinPurify = Yes
  MOM = No
  PolynomialRepulsive = {}
  OrbitalResolvedSCC = No
  ReadInitialCharges = No
  InitialCharges = {}
  SCCTolerance = 1.0000000000000001E-005
  Mixer = Broyden {
    MixingParameter = 0.20000000000000001
    InverseJacobiWeight = 1.0000000000000000E-002
    MinimalWeight = 1.0000000000000000
    MaximalWeight = 100000.00000000000
    WeightFactor = 1.0000000000000000E-002
  }
  ElectricField = {}
  Filling = Fermi {
    Temperature = 0.0000000000000000
  }
  Eigensolver = RelativelyRobust {}
  MaxSCCIterations = 100
  Dispersion = {}
  ThirdOrder = No
  Differentiation = FiniteDiff {
    Delta = 1.2207031250000000E-004
  }
  ForceEvaluation = "Traditional"
}
ParserOptions = {
  ParserVersion = 6
  WriteHSDInput = Yes
  WriteXMLInput = No
  StopAfterParsing = No
  IgnoreUnprocessedNodes = No
}
Driver = {}
Analysis = {
  ProjectStates = {}
  MullikenAnalysis = Yes
  AtomResolvedEnergies = No
  WriteEigenvectors = No
  WriteBandOut = Yes
  CalculateForces = No
}
ExcitedState = {}
Options = {
  WriteDetailedOut = Yes
  WriteAutotestTag = No
  WriteDetailedXML = No
  WriteResultsTag = No
  RestartFrequency = 20
  RandomSeed = 0
  WriteHS = No
  WriteRealHS = No
  MinimiseMemoryUsage = No
  ShowFoldedCoords = No
  TimingVerbosity = -1
  WriteChargesAsText = No
}
