Geometry = GenFormat {
35 C
C O F N H
1   1   2.4293646406E+00   2.1708015322E+00  -1.7176644169E+00
2   2   3.2594951338E+00   1.0275962172E+00  -1.5286249132E+00
3   1   2.7062255668E+00  -1.1454877090E-01  -2.0605547008E+00
4   1   3.2717927982E+00  -6.5955400998E-01  -3.2277530286E+00
5   1   4.3165791298E+00   2.6380751542E-02  -4.0142467274E+00
6   2   5.2633602235E+00  -5.1826062548E-01  -4.5510310488E+00
7   2   4.0613206542E+00   1.3331668185E+00  -4.1911049912E+00
8   1   2.8878592998E+00  -1.9333008586E+00  -3.6698352446E+00
9   1   1.9568116511E+00  -2.6687434896E+00  -2.9436898126E+00
10   1   1.4043272933E+00  -2.1253143854E+00  -1.7864671516E+00
11   3   5.6204533642E-01  -2.8926382885E+00  -1.0776268514E+00
12   1   1.7268326214E+00  -8.3221402169E-01  -1.3413464495E+00
13   4   1.2097038378E+00  -3.2479390039E-01  -1.2783945346E-01
14   4   0.0000000000E+00   0.0000000000E+00   0.0000000000E+00
15   1  -9.1458847709E-01  -1.2290320150E-01  -1.0618454073E+00
16   1  -1.7979052885E+00  -1.2088374424E+00  -1.0948602383E+00
17   1  -2.7407582522E+00  -1.3351561406E+00  -2.1199019522E+00
18   1  -3.6178187008E+00  -2.4683171676E+00  -2.1532639319E+00
19   4  -4.3272883999E+00  -3.3856072282E+00  -2.1852885186E+00
20   1  -2.8232556604E+00  -3.5339725401E-01  -3.1104468085E+00
21   1  -1.9733181668E+00   7.5774863131E-01  -3.0645893430E+00
22   1  -2.1043214695E+00   1.7868617226E+00  -4.1223081511E+00
23   2  -2.9154195774E+00   1.7707552311E+00  -5.0281130501E+00
24   2  -1.2052375618E+00   2.7774664671E+00  -3.9977625161E+00
25   1  -1.0348224742E+00   8.7556989281E-01  -2.0323702640E+00
26   5   1.8836116185E+00   2.1421903541E+00  -2.6672300844E+00
27   5   1.7357209719E+00   2.2748600478E+00  -8.7905312385E-01
28   5   3.0747248159E+00   3.0544217177E+00  -1.7275023527E+00
29   5   4.8143171862E+00   1.6486397118E+00  -4.7337146626E+00
30   5   3.3390702814E+00  -2.3640177641E+00  -4.5626482601E+00
31   5   1.6762534637E+00  -3.6713535296E+00  -3.2539167434E+00
32   5  -1.7303281852E+00  -1.9661448790E+00  -3.1391732839E-01
33   5  -3.5557238067E+00  -4.4454843174E-01  -3.9128939619E+00
34   5  -1.4049884587E+00   3.3764331821E+00  -4.7491763316E+00
35   5  -3.9972045023E-01   1.7530865696E+00  -1.9685368320E+00
}
Driver = ConjugateGradient {
  MaxSteps = 20000
  AppendGeometries = Yes
  OutputPrefix = 'opt'
  LatticeOpt = No
  MovedAtoms = "1:-1"
  MaxAtomStep = 0.20000000000000001
  MaxForceComponent = 1.0000000000000000E-004
  ConvergentForcesOnly = Yes
  Constraints = {}
}
Hamiltonian = DFTB {
  Charge = 0
  SCC = Yes
  SpinPolarisation = Colinear {
    UnpairedElectrons = 0
    RelaxTotalSpin = No
    InitialSpins = {}
  }
  SpinConstants = {
    H = -0.072
    C = -0.023
    N = -0.026
    O = -0.028
    F = -0.028
    ShellResolvedSpin = No
  }
  ThirdOrderFull = Yes
  HCorrection = Damping {
    Exponent = 4.05
  }
  HubbardDerivs = {
    H = -0.1857
    C = -0.1492
    N = -0.1535
    O = -0.1575
    F = -0.1623
  }
  MaxAngularMomentum = {
    H = "s"
    C = "p"
    N = "p"
    O = "p"
    F = "p"
  }
  SlaterKosterFiles = Type2FileNames {
    Prefix = "../dftb_bin/3ob-3-1/"
    Separator = '-'
    Suffix = '.skf'
    LowerCaseTypeName = No
  }
  NonAufbau = No
  SpinPurify = Yes
  MOM = No
  GroundGuess = No
  PolynomialRepulsive = {}
  OrbitalResolvedSCC = No
  ReadInitialCharges = No
  InitialCharges = {}
  SCCTolerance = 1.0000000000000001E-005
  Mixer = Broyden {
    MixingParameter = 0.20000000000000001
    InverseJacobiWeight = 1.0000000000000000E-002
    MinimalWeight = 1.0000000000000000
    MaximalWeight = 100000.00000000000
    WeightFactor = 1.0000000000000000E-002
  }
  ElectricField = {}
  Filling = Fermi {
    Temperature = 0.0000000000000000
  }
  Eigensolver = RelativelyRobust {}
  MaxSCCIterations = 100
  Dispersion = {}
  ThirdOrder = No
  Differentiation = FiniteDiff {
    Delta = 1.2207031250000000E-004
  }
  ForceEvaluation = "Traditional"
}
ParserOptions = {
  ParserVersion = 6
  WriteHSDInput = Yes
  WriteXMLInput = No
  StopAfterParsing = No
  IgnoreUnprocessedNodes = No
}
Analysis = {
  ProjectStates = {}
  MullikenAnalysis = Yes
  AtomResolvedEnergies = No
  WriteEigenvectors = No
  WriteBandOut = Yes
  CalculateForces = No
}
ExcitedState = {}
Options = {
  WriteDetailedOut = Yes
  WriteAutotestTag = No
  WriteDetailedXML = No
  WriteResultsTag = No
  RandomSeed = 0
  WriteHS = No
  WriteRealHS = No
  MinimiseMemoryUsage = No
  ShowFoldedCoords = No
  TimingVerbosity = -1
  WriteChargesAsText = No
}
