Geometry = GenFormat {
36  C
C  O  N  F  H
1 1   -0.6676008036E+01    0.2279807588E+01   -0.1545574482E+01
2 2   -0.5858539509E+01    0.1226693361E+01   -0.2028078432E+01
3 1   -0.4662680443E+01    0.9912064411E+00   -0.1458931019E+01
4 1   -0.4153701543E+01    0.1751600853E+01   -0.3842950110E+00
5 1   -0.2907856698E+01    0.1430550440E+01    0.1376848616E+00
6 1   -0.2128528839E+01    0.3643857491E+00   -0.3621184590E+00
7 3   -0.8910257859E+00    0.1756420971E+00    0.2882335894E+00
8 3   -0.1449847786E+00   -0.8071228373E+00   -0.1198556639E+00
9 1    0.1064540064E+01   -0.9870526702E+00    0.6136843093E+00
10 1    0.1193234308E+01   -0.4983279736E+00    0.1931951984E+01
11 1    0.2364365169E+01   -0.7509404882E+00    0.2644410974E+01
12 4    0.2476662311E+01   -0.2850297476E+00    0.3894763075E+01
13 1    0.3425187044E+01   -0.1483228791E+01    0.2093048844E+01
14 1    0.3286805376E+01   -0.1967459972E+01    0.7950200832E+00
15 1    0.2122555443E+01   -0.1745880168E+01    0.3460948107E-01
16 1    0.2133121587E+01   -0.2334034466E+01   -0.1358647843E+01
17 2    0.3099582637E+01   -0.2964767619E+01   -0.1772301844E+01
18 2    0.1040114725E+01   -0.2151266408E+01   -0.2144401708E+01
19 1   -0.2640178672E+01   -0.4129198694E+00   -0.1462116377E+01
20 2   -0.1851457972E+01   -0.1407437489E+01   -0.1903518636E+01
21 1   -0.2182304733E+01   -0.2238799375E+01   -0.3010231321E+01
22 1   -0.3912207409E+01   -0.9096277268E-01   -0.2006921239E+01
23 1   -0.4542533490E+01   -0.7923118513E+00   -0.3098380522E+01
24 3   -0.5123851937E+01   -0.1295717590E+01   -0.3961693650E+01
25 5   -0.6943750976E+01    0.2122008876E+01   -0.4908336590E+00
26 5   -0.7586224277E+01    0.2286022301E+01   -0.2149483381E+01
27 5   -0.6170832467E+01    0.3251397617E+01   -0.1644573749E+01
28 5   -0.4718989993E+01    0.2576210513E+01    0.3502655988E-01
29 5   -0.2509629842E+01    0.2011645783E+01    0.9651144825E+00
30 5    0.3780663184E+00    0.6019097939E-01    0.2382291362E+01
31 5    0.4324800637E+01   -0.1669659328E+01    0.2670963661E+01
32 5    0.4086655694E+01   -0.2541449327E+01    0.3338252514E+00
33 5    0.3291088067E+00   -0.1650793558E+01   -0.1681875353E+01
34 5   -0.3084556487E+01   -0.2825734028E+01   -0.2801493462E+01
35 5   -0.1337797909E+01   -0.2917549036E+01   -0.3153949417E+01
36 5   -0.2321909997E+01   -0.1641330120E+01   -0.3918760672E+01
}
Hamiltonian = DFTB {
  Charge = 0
  SCC = Yes
  NonAufbau = Yes
  GroundGuess = Yes
  SpinPolarisation = Colinear {
    UnpairedElectrons = 0
    RelaxTotalSpin = No
    InitialSpins = {}
  }
  SpinConstants = {
    H = -0.072
    C = -0.023
    N = -0.026
    O = -0.028
    F = -0.028
    ShellResolvedSpin = No
  }
  ThirdOrderFull = Yes
  HCorrection = Damping {
    Exponent = 4.05
  }
  HubbardDerivs = {
    H = -0.1857
    C = -0.1492
    N = -0.1535
    O = -0.1575
    F = -0.1623
  }
  MaxAngularMomentum = {
    H = "s"
    C = "p"
    N = "p"
    O = "p"
    F = "p"
  }
  SlaterKosterFiles = Type2FileNames {
    Prefix = "../dftb_bin/3ob-3-1/"
    Separator = '-'
    Suffix = '.skf'
    LowerCaseTypeName = No
  }
  SpinPurify = Yes
  MOM = No
  PolynomialRepulsive = {}
  OrbitalResolvedSCC = No
  ReadInitialCharges = No
  InitialCharges = {}
  SCCTolerance = 1.0000000000000001E-005
  Mixer = Broyden {
    MixingParameter = 0.20000000000000001
    InverseJacobiWeight = 1.0000000000000000E-002
    MinimalWeight = 1.0000000000000000
    MaximalWeight = 100000.00000000000
    WeightFactor = 1.0000000000000000E-002
  }
  ElectricField = {}
  Filling = Fermi {
    Temperature = 0.0000000000000000
  }
  Eigensolver = RelativelyRobust {}
  MaxSCCIterations = 100
  Dispersion = {}
  ThirdOrder = No
  Differentiation = FiniteDiff {
    Delta = 1.2207031250000000E-004
  }
  ForceEvaluation = "Traditional"
}
ParserOptions = {
  ParserVersion = 6
  WriteHSDInput = Yes
  WriteXMLInput = No
  StopAfterParsing = No
  IgnoreUnprocessedNodes = No
}
Driver = {}
Analysis = {
  ProjectStates = {}
  MullikenAnalysis = Yes
  AtomResolvedEnergies = No
  WriteEigenvectors = No
  WriteBandOut = Yes
  CalculateForces = No
}
ExcitedState = {}
Options = {
  WriteDetailedOut = Yes
  WriteAutotestTag = No
  WriteDetailedXML = No
  WriteResultsTag = No
  RestartFrequency = 20
  RandomSeed = 0
  WriteHS = No
  WriteRealHS = No
  MinimiseMemoryUsage = No
  ShowFoldedCoords = No
  TimingVerbosity = -1
  WriteChargesAsText = No
}
