Geometry = GenFormat {
36 C
C O N F H
1   1   4.2683463183E+00  -6.3540675809E-01  -3.7892698128E+00
2   1   3.4367201782E+00   2.8655196890E-01  -2.9366824753E+00
3   1   3.3585458026E+00   1.6436523662E+00  -3.2842490304E+00
4   1   2.6224623298E+00   2.5336658826E+00  -2.5014197576E+00
5   1   2.5726845404E+00   3.9565726907E+00  -2.8992243475E+00
6   2   2.4585937322E+00   4.3191052832E+00  -4.0559415189E+00
7   2   2.7043897638E+00   4.8007577382E+00  -1.8551064364E+00
8   1   1.9164571247E+00   2.0722663955E+00  -1.3911853577E+00
9   1   1.9462607401E+00   7.1371911733E-01  -1.0462311196E+00
10   3   1.2218631378E+00   2.9414614886E-01   9.0272949103E-02
11   3   0.0000000000E+00   0.0000000000E+00   0.0000000000E+00
12   1  -6.6853543593E-01   8.3697710090E-02  -1.2367635757E+00
13   1  -7.3283377551E-01  -1.0285838062E+00  -2.0791640916E+00
14   1  -1.4136116914E+00  -9.4537401720E-01  -3.2877452672E+00
15   4  -1.4530645094E+00  -2.0145846896E+00  -4.0929426197E+00
16   1  -2.0533957789E+00   2.2448172187E-01  -3.6744985188E+00
17   1  -2.0211852909E+00   1.3338502846E+00  -2.8261838766E+00
18   1  -2.7116334893E+00   2.5693560284E+00  -3.2603859080E+00
19   2  -3.3899889686E+00   2.6885730194E+00  -4.2626401610E+00
20   2  -2.5014405383E+00   3.5987842171E+00  -2.4226665906E+00
21   1  -1.3447364456E+00   1.2548783270E+00  -1.6013362115E+00
22   1   2.7516558735E+00  -1.7996998542E-01  -1.7888140624E+00
23   1   2.8638998007E+00  -1.6293311785E+00  -1.3840657647E+00
24   5   5.1482887498E+00  -9.7324216238E-01  -3.2331185819E+00
25   5   3.6787677979E+00  -1.5017200704E+00  -4.1054840205E+00
26   5   4.6189326010E+00  -1.3448575284E-01  -4.6980278205E+00
27   5   3.8796182385E+00   2.0165501524E+00  -4.1661356911E+00
28   5   2.9566404571E+00   4.3774159019E+00  -1.0128373611E+00
29   5   1.3041431319E+00   2.7509261358E+00  -8.0202095776E-01
30   5  -2.5206999554E-01  -1.9601055499E+00  -1.7986981260E+00
31   5  -2.5738113254E+00   2.6025393225E-01  -4.6279937168E+00
32   5  -2.9740181165E+00   4.3490067164E+00  -2.8431331450E+00
33   5  -1.3304385885E+00   2.1048822741E+00  -9.2332945894E-01
34   5   3.9160868341E+00  -1.9253736781E+00  -1.3192206221E+00
35   5   2.4248146456E+00  -1.8287689765E+00  -4.0240527405E-01
36   5   2.3549588876E+00  -2.2644373199E+00  -2.1157619036E+00
}
Driver = ConjugateGradient {
  MaxSteps = 20000
  AppendGeometries = Yes
  OutputPrefix = 'opt'
  LatticeOpt = No
  MovedAtoms = "1:-1"
  MaxAtomStep = 0.20000000000000001
  MaxForceComponent = 1.0000000000000000E-004
  ConvergentForcesOnly = Yes
  Constraints = {}
}
Hamiltonian = DFTB {
  Charge = 0
  SCC = Yes
  SpinPolarisation = Colinear {
    UnpairedElectrons = 0
    RelaxTotalSpin = No
    InitialSpins = {}
  }
  SpinConstants = {
    H = -0.072
    C = -0.023
    N = -0.026
    O = -0.028
    F = -0.028
    ShellResolvedSpin = No
  }
  ThirdOrderFull = Yes
  HCorrection = Damping {
    Exponent = 4.05
  }
  HubbardDerivs = {
    H = -0.1857
    C = -0.1492
    N = -0.1535
    O = -0.1575
    F = -0.1623
  }
  MaxAngularMomentum = {
    H = "s"
    C = "p"
    N = "p"
    O = "p"
    F = "p"
  }
  SlaterKosterFiles = Type2FileNames {
    Prefix = "../dftb_bin/3ob-3-1/"
    Separator = '-'
    Suffix = '.skf'
    LowerCaseTypeName = No
  }
  NonAufbau = No
  SpinPurify = Yes
  MOM = No
  GroundGuess = No
  PolynomialRepulsive = {}
  OrbitalResolvedSCC = No
  ReadInitialCharges = No
  InitialCharges = {}
  SCCTolerance = 1.0000000000000001E-005
  Mixer = Broyden {
    MixingParameter = 0.20000000000000001
    InverseJacobiWeight = 1.0000000000000000E-002
    MinimalWeight = 1.0000000000000000
    MaximalWeight = 100000.00000000000
    WeightFactor = 1.0000000000000000E-002
  }
  ElectricField = {}
  Filling = Fermi {
    Temperature = 0.0000000000000000
  }
  Eigensolver = RelativelyRobust {}
  MaxSCCIterations = 100
  Dispersion = {}
  ThirdOrder = No
  Differentiation = FiniteDiff {
    Delta = 1.2207031250000000E-004
  }
  ForceEvaluation = "Traditional"
}
ParserOptions = {
  ParserVersion = 6
  WriteHSDInput = Yes
  WriteXMLInput = No
  StopAfterParsing = No
  IgnoreUnprocessedNodes = No
}
Analysis = {
  ProjectStates = {}
  MullikenAnalysis = Yes
  AtomResolvedEnergies = No
  WriteEigenvectors = No
  WriteBandOut = Yes
  CalculateForces = No
}
ExcitedState = {}
Options = {
  WriteDetailedOut = Yes
  WriteAutotestTag = No
  WriteDetailedXML = No
  WriteResultsTag = No
  RandomSeed = 0
  WriteHS = No
  WriteRealHS = No
  MinimiseMemoryUsage = No
  ShowFoldedCoords = No
  TimingVerbosity = -1
  WriteChargesAsText = No
}
