Geometry = GenFormat {
35  C
C  O  F  N  H
1 1    0.3171350980E+01    0.1947807875E+01   -0.7301710985E+00
2 2    0.3406589643E+01    0.1214845559E+01   -0.1916017872E+01
3 1    0.2719283876E+01    0.1179396152E+00   -0.2273802886E+01
4 1    0.3149474333E+01   -0.5076337005E+00   -0.3483650175E+01
5 1    0.4244419206E+01    0.7736501501E-02   -0.4351601834E+01
6 2    0.4606378206E+01   -0.5609657935E+00   -0.5383532587E+01
7 2    0.4861110912E+01    0.1160788717E+01   -0.3976607419E+01
8 1    0.2514484665E+01   -0.1683169503E+01   -0.3921569852E+01
9 1    0.1475999762E+01   -0.2264914952E+01   -0.3198905645E+01
10 1    0.1068921714E+01   -0.1660182160E+01   -0.2005903985E+01
11 3    0.5047487283E-01   -0.2213051515E+01   -0.1347705570E+01
12 1    0.1659540424E+01   -0.4678424986E+00   -0.1507692982E+01
13 4    0.1119187320E+01    0.2172568949E+00   -0.3792847575E+00
14 4    0.5187421207E+00   -0.5227976459E+00    0.4927570120E+00
15 1   -0.1422421488E+00    0.2044212035E+00    0.1528947309E+01
16 1   -0.3814358703E+00   -0.4494908530E+00    0.2751438272E+01
17 1   -0.1075398431E+01    0.2070436109E+00    0.3779141160E+01
18 1   -0.1297586137E+01   -0.4609850496E+00    0.5041042900E+01
19 4   -0.1469866654E+01   -0.9946112866E+00    0.6048739807E+01
20 1   -0.1559882652E+01    0.1509581822E+01    0.3578676336E+01
21 1   -0.1348297504E+01    0.2158135386E+01    0.2349950888E+01
22 1   -0.1891261462E+01    0.3533370213E+01    0.2162762627E+01
23 2   -0.2524709650E+01    0.4154306971E+01    0.3010787447E+01
24 2   -0.1638321645E+01    0.4103862145E+01    0.9483054060E+00
25 1   -0.6405567548E+00    0.1507464885E+01    0.1328991066E+01
26 5    0.2224393663E+01    0.2502846545E+01   -0.7841615193E+00
27 5    0.3163107109E+01    0.1291441540E+01    0.1507782134E+00
28 5    0.3992483758E+01    0.2666321694E+01   -0.6346047779E+00
29 5    0.5545930373E+01    0.1369635786E+01   -0.4631662326E+01
30 5    0.2860061520E+01   -0.2128299707E+01   -0.4850400596E+01
31 5    0.9845698562E+00   -0.3168212869E+01   -0.3544192081E+01
32 5   -0.7812093803E-02   -0.1458571207E+01    0.2903967246E+01
33 5   -0.2109558940E+01    0.2027333321E+01    0.4359910417E+01
34 5   -0.2038618059E+01    0.4988039130E+01    0.9276885237E+00
35 5   -0.4881298965E+00    0.2002145584E+01    0.3728626043E+00
}
Hamiltonian = DFTB {
  Charge = 0
  SCC = Yes
  NonAufbau = Yes
  GroundGuess = Yes
  SpinPolarisation = Colinear {
    UnpairedElectrons = 0
    RelaxTotalSpin = No
    InitialSpins = {}
  }
  SpinConstants = {
    H = -0.072
    C = -0.023
    N = -0.026
    O = -0.028
    F = -0.028
    ShellResolvedSpin = No
  }
  ThirdOrderFull = Yes
  HCorrection = Damping {
    Exponent = 4.05
  }
  HubbardDerivs = {
    H = -0.1857
    C = -0.1492
    N = -0.1535
    O = -0.1575
    F = -0.1623
  }
  MaxAngularMomentum = {
    H = "s"
    C = "p"
    N = "p"
    O = "p"
    F = "p"
  }
  SlaterKosterFiles = Type2FileNames {
    Prefix = "../dftb_bin/3ob-3-1/"
    Separator = '-'
    Suffix = '.skf'
    LowerCaseTypeName = No
  }
  SpinPurify = Yes
  MOM = No
  PolynomialRepulsive = {}
  OrbitalResolvedSCC = No
  ReadInitialCharges = No
  InitialCharges = {}
  SCCTolerance = 1.0000000000000001E-005
  Mixer = Broyden {
    MixingParameter = 0.20000000000000001
    InverseJacobiWeight = 1.0000000000000000E-002
    MinimalWeight = 1.0000000000000000
    MaximalWeight = 100000.00000000000
    WeightFactor = 1.0000000000000000E-002
  }
  ElectricField = {}
  Filling = Fermi {
    Temperature = 0.0000000000000000
  }
  Eigensolver = RelativelyRobust {}
  MaxSCCIterations = 100
  Dispersion = {}
  ThirdOrder = No
  Differentiation = FiniteDiff {
    Delta = 1.2207031250000000E-004
  }
  ForceEvaluation = "Traditional"
}
ParserOptions = {
  ParserVersion = 6
  WriteHSDInput = Yes
  WriteXMLInput = No
  StopAfterParsing = No
  IgnoreUnprocessedNodes = No
}
Driver = {}
Analysis = {
  ProjectStates = {}
  MullikenAnalysis = Yes
  AtomResolvedEnergies = No
  WriteEigenvectors = No
  WriteBandOut = Yes
  CalculateForces = No
}
ExcitedState = {}
Options = {
  WriteDetailedOut = Yes
  WriteAutotestTag = No
  WriteDetailedXML = No
  WriteResultsTag = No
  RestartFrequency = 20
  RandomSeed = 0
  WriteHS = No
  WriteRealHS = No
  MinimiseMemoryUsage = No
  ShowFoldedCoords = No
  TimingVerbosity = -1
  WriteChargesAsText = No
}
