Geometry = GenFormat {
43  C
C  O  N  H
1 1   -0.3265788425E+01   -0.1583969627E+01   -0.3180198335E+00
2 1   -0.2840952395E+01   -0.1710141928E+01    0.1117999186E+01
3 1   -0.3497755687E+01   -0.2575491411E+01    0.1995217124E+01
4 1   -0.3086102554E+01   -0.2710023824E+01    0.3333801520E+01
5 1   -0.3830819901E+01   -0.3627746305E+01    0.4229369352E+01
6 2   -0.4812322195E+01   -0.4291389340E+01    0.3900430242E+01
7 2   -0.3361352486E+01   -0.3711192877E+01    0.5512083496E+01
8 1   -0.1988958792E+01   -0.1961339733E+01    0.3796836931E+01
9 1   -0.1309002220E+01   -0.1109035341E+01    0.2932670338E+01
10 1   -0.1714471912E+01   -0.9929347104E+00    0.1589349638E+01
11 3   -0.1130782817E+01    0.1382519458E-01    0.7492913277E+00
12 3    0.1164443391E+00    0.8406189054E-01    0.5676971024E+00
13 1    0.9877323905E+00   -0.9808438588E+00    0.9951142505E+00
14 1    0.7639961017E+00   -0.2297641126E+01    0.5612211362E+00
15 1    0.1697559469E+01   -0.3305002300E+01    0.8509350657E+00
16 1    0.1391262514E+01   -0.4691108654E+01    0.3388759841E+00
17 2    0.3957431494E+00   -0.4932393308E+01   -0.3267414330E+00
18 2    0.2276157929E+01   -0.5682631785E+01    0.6484325688E+00
19 1    0.2852596223E+01   -0.2981285065E+01    0.1583521394E+01
20 1    0.3105259880E+01   -0.1661974234E+01    0.2004895697E+01
21 1    0.4342134707E+01   -0.1331916263E+01    0.2761649176E+01
22 1    0.4930277074E+01   -0.2269865777E+01    0.3629894651E+01
23 1    0.6088087076E+01   -0.1956743914E+01    0.4340297990E+01
24 1    0.6685851940E+01   -0.7037931911E+00    0.4193445641E+01
25 1    0.6115299503E+01    0.2359568671E+00    0.3332925383E+01
26 1    0.4953929314E+01   -0.7222030838E-01    0.2626587013E+01
27 1    0.2172228461E+01   -0.6629404639E+00    0.1679460359E+01
28 4   -0.4298562027E+01   -0.1895917856E+01   -0.4533569706E+00
29 4   -0.3156821427E+01   -0.5571028283E+00   -0.6658114284E+00
30 4   -0.2644361382E+01   -0.2208194148E+01   -0.9637881801E+00
31 4   -0.4353430870E+01   -0.3153645745E+01    0.1654726035E+01
32 4   -0.3918245194E+01   -0.4334310908E+01    0.6005541675E+01
33 4   -0.1677536052E+01   -0.2051120818E+01    0.4833888861E+01
34 4   -0.4720438674E+00   -0.5158235667E+00    0.3292447722E+01
35 4   -0.1212927281E+00   -0.2553524834E+01   -0.1568895929E-01
36 4    0.3023384743E+01   -0.5371543328E+01    0.1175487648E+01
37 4    0.3589348047E+01   -0.3751903150E+01    0.1810152047E+01
38 4    0.4466904102E+01   -0.3244626776E+01    0.3767936926E+01
39 4    0.6523999367E+01   -0.2692584605E+01    0.5011696066E+01
40 4    0.7589777987E+01   -0.4611612924E+00    0.4746294190E+01
41 4    0.6577565571E+01    0.1212274069E+01    0.3209937442E+01
42 4    0.4528923998E+01    0.6650488701E+00    0.1949136514E+01
43 4    0.2336661016E+01    0.3616779929E+00    0.2004539971E+01
}
Hamiltonian = DFTB {
  Charge = 0
  SCC = Yes
  NonAufbau = Yes
  GroundGuess = Yes
  SpinPolarisation = Colinear {
    UnpairedElectrons = 0
    RelaxTotalSpin = No
    InitialSpins = {}
  }
  SpinConstants = {
    H = -0.072
    C = -0.023
    N = -0.026
    O = -0.028
    ShellResolvedSpin = No
  }
  ThirdOrderFull = Yes
  HCorrection = Damping {
    Exponent = 4.05
  }
  HubbardDerivs = {
    H = -0.1857
    C = -0.1492
    N = -0.1535
    O = -0.1575
  }
  MaxAngularMomentum = {
    H = "s"
    C = "p"
    N = "p"
    O = "p"
  }
  SlaterKosterFiles = Type2FileNames {
    Prefix = "../dftb_bin/3ob-3-1/"
    Separator = '-'
    Suffix = '.skf'
    LowerCaseTypeName = No
  }
  SpinPurify = Yes
  MOM = No
  PolynomialRepulsive = {}
  OrbitalResolvedSCC = No
  ReadInitialCharges = No
  InitialCharges = {}
  SCCTolerance = 1.0000000000000001E-005
  Mixer = Broyden {
    MixingParameter = 0.20000000000000001
    InverseJacobiWeight = 1.0000000000000000E-002
    MinimalWeight = 1.0000000000000000
    MaximalWeight = 100000.00000000000
    WeightFactor = 1.0000000000000000E-002
  }
  ElectricField = {}
  Filling = Fermi {
    Temperature = 0.0000000000000000
  }
  Eigensolver = RelativelyRobust {}
  MaxSCCIterations = 100
  Dispersion = {}
  ThirdOrder = No
  Differentiation = FiniteDiff {
    Delta = 1.2207031250000000E-004
  }
  ForceEvaluation = "Traditional"
}
ParserOptions = {
  ParserVersion = 6
  WriteHSDInput = Yes
  WriteXMLInput = No
  StopAfterParsing = No
  IgnoreUnprocessedNodes = No
}
Driver = {}
Analysis = {
  ProjectStates = {}
  MullikenAnalysis = Yes
  AtomResolvedEnergies = No
  WriteEigenvectors = No
  WriteBandOut = Yes
  CalculateForces = No
}
ExcitedState = {}
Options = {
  WriteDetailedOut = Yes
  WriteAutotestTag = No
  WriteDetailedXML = No
  WriteResultsTag = No
  RestartFrequency = 20
  RandomSeed = 0
  WriteHS = No
  WriteRealHS = No
  MinimiseMemoryUsage = No
  ShowFoldedCoords = No
  TimingVerbosity = -1
  WriteChargesAsText = No
}
