Geometry = GenFormat {
35  C
C  O  N  F  H
1 1   -0.3344327272E+01    0.1732015841E+01    0.6867937880E+00
2 2   -0.3501036656E+01    0.2288522223E+01   -0.6060383529E+00
3 1   -0.2942148943E+01    0.1723468347E+01   -0.1703265308E+01
4 1   -0.1884283180E+01    0.7696003185E+00   -0.1701364232E+01
5 3   -0.1402052497E+01    0.1722607503E+00   -0.4756538748E+00
6 3   -0.1636596975E+00   -0.8586541147E-02   -0.3093553127E+00
7 1    0.8551539994E+00    0.5666051151E+00   -0.1135675218E+01
8 1    0.1107156627E+01    0.1962741495E+01   -0.1076651057E+01
9 1    0.1865832909E+00    0.2894386099E+01   -0.3354749583E+00
10 1    0.2243039619E+01    0.2470680197E+01   -0.1714940707E+01
11 1    0.3140578699E+01    0.1633122174E+01   -0.2383235048E+01
12 1    0.2922973729E+01    0.2581923156E+00   -0.2395785236E+01
13 1    0.1799646562E+01   -0.2962864402E+00   -0.1755590376E+01
14 1    0.1503477406E+01   -0.1767023938E+01   -0.1799850777E+01
15 2    0.3736850458E+00   -0.2217490587E+01   -0.1667113925E+01
16 2    0.2564374213E+01   -0.2600500901E+01   -0.2009772378E+01
17 1   -0.1425643671E+01    0.2518757739E+00   -0.2928029580E+01
18 1   -0.1926917346E+01    0.7051709453E+00   -0.4149794665E+01
19 1   -0.2903421218E+01    0.1705910450E+01   -0.4144430042E+01
20 4   -0.3373595128E+01    0.2167221046E+01   -0.5306443796E+01
21 1   -0.3421882216E+01    0.2227254370E+01   -0.2943990363E+01
22 1   -0.4451155263E+01    0.3235789069E+01   -0.2962811834E+01
23 3   -0.5272731542E+01    0.4046438204E+01   -0.2974631607E+01
24 5   -0.3935753199E+01    0.2346855069E+01    0.1371898591E+01
25 5   -0.2291948834E+01    0.1749813799E+01    0.1007980236E+01
26 5   -0.3715589991E+01    0.6992216734E+00    0.7213768428E+00
27 5   -0.1318630020E+00    0.2464378165E+01    0.6133144252E+00
28 5    0.6781953627E+00    0.3843613129E+01   -0.1358888098E+00
29 5   -0.7168215905E+00    0.3107773910E+01   -0.9113864250E+00
30 5    0.2430278702E+01    0.3541545806E+01   -0.1683986129E+01
31 5    0.4009351478E+01    0.2051307948E+01   -0.2882650095E+01
32 5    0.3623587830E+01   -0.3899741858E+00   -0.2920808489E+01
33 5    0.3406893967E+01   -0.2128386774E+01   -0.2043229919E+01
34 5   -0.7011635883E+00   -0.5573532022E+00   -0.2906257257E+01
35 5   -0.1575413957E+01    0.2881610755E+00   -0.5087324287E+01
}
Hamiltonian = DFTB {
  Charge = 0
  SCC = Yes
  NonAufbau = Yes
  GroundGuess = Yes
  SpinPolarisation = Colinear {
    UnpairedElectrons = 0
    RelaxTotalSpin = No
    InitialSpins = {}
  }
  SpinConstants = {
    H = -0.072
    C = -0.023
    N = -0.026
    O = -0.028
    F = -0.028
    ShellResolvedSpin = No
  }
  ThirdOrderFull = Yes
  HCorrection = Damping {
    Exponent = 4.05
  }
  HubbardDerivs = {
    H = -0.1857
    C = -0.1492
    N = -0.1535
    O = -0.1575
    F = -0.1623
  }
  MaxAngularMomentum = {
    H = "s"
    C = "p"
    N = "p"
    O = "p"
    F = "p"
  }
  SlaterKosterFiles = Type2FileNames {
    Prefix = "../dftb_bin/3ob-3-1/"
    Separator = '-'
    Suffix = '.skf'
    LowerCaseTypeName = No
  }
  SpinPurify = Yes
  MOM = No
  PolynomialRepulsive = {}
  OrbitalResolvedSCC = No
  ReadInitialCharges = No
  InitialCharges = {}
  SCCTolerance = 1.0000000000000001E-005
  Mixer = Broyden {
    MixingParameter = 0.20000000000000001
    InverseJacobiWeight = 1.0000000000000000E-002
    MinimalWeight = 1.0000000000000000
    MaximalWeight = 100000.00000000000
    WeightFactor = 1.0000000000000000E-002
  }
  ElectricField = {}
  Filling = Fermi {
    Temperature = 0.0000000000000000
  }
  Eigensolver = RelativelyRobust {}
  MaxSCCIterations = 100
  Dispersion = {}
  ThirdOrder = No
  Differentiation = FiniteDiff {
    Delta = 1.2207031250000000E-004
  }
  ForceEvaluation = "Traditional"
}
ParserOptions = {
  ParserVersion = 6
  WriteHSDInput = Yes
  WriteXMLInput = No
  StopAfterParsing = No
  IgnoreUnprocessedNodes = No
}
Driver = {}
Analysis = {
  ProjectStates = {}
  MullikenAnalysis = Yes
  AtomResolvedEnergies = No
  WriteEigenvectors = No
  WriteBandOut = Yes
  CalculateForces = No
}
ExcitedState = {}
Options = {
  WriteDetailedOut = Yes
  WriteAutotestTag = No
  WriteDetailedXML = No
  WriteResultsTag = No
  RestartFrequency = 20
  RandomSeed = 0
  WriteHS = No
  WriteRealHS = No
  MinimiseMemoryUsage = No
  ShowFoldedCoords = No
  TimingVerbosity = -1
  WriteChargesAsText = No
}
