Geometry = GenFormat {
31  C
C  O  F  N  H
1 1   -0.4149066703E+01    0.1989528096E+00    0.1212632563E+01
2 2   -0.2925433565E+01    0.3000173890E+00    0.4984282975E+00
3 1   -0.2800891703E+01    0.1144954274E+01   -0.5717417903E+00
4 1   -0.3741951995E+01    0.2122969132E+01   -0.9686132381E+00
5 3   -0.4872346238E+01    0.2328475345E+01   -0.2487764726E+00
6 1   -0.3543322089E+01    0.2922947264E+01   -0.2094490466E+01
7 1   -0.2392980558E+01    0.2748009094E+01   -0.2871732205E+01
8 1   -0.1454538321E+01    0.1779045389E+01   -0.2519806852E+01
9 1   -0.1624638404E+01    0.1010315742E+01   -0.1354558325E+01
10 4   -0.6729363614E+00   -0.5222303639E-01   -0.1091742960E+01
11 4   -0.5382257641E-01   -0.1122770703E+00    0.7593506145E-02
12 1   -0.1870132230E+00    0.9469257350E+00    0.9912597315E+00
13 1   -0.6477961522E+00    0.6125938062E+00    0.2282114813E+01
14 3   -0.1026786364E+01   -0.6500190041E+00    0.2524758233E+01
15 1   -0.7497499501E+00    0.1558722459E+01    0.3302278594E+01
16 1   -0.3481048307E+00    0.2873696026E+01    0.3043295614E+01
17 1    0.1622029160E+00    0.3216263273E+01    0.1792755861E+01
18 1    0.2700793060E+00    0.2266883785E+01    0.7573242298E+00
19 1    0.9108592526E+00    0.2738466886E+01   -0.5301733139E+00
20 2    0.8694898559E+00    0.3905904421E+01   -0.8850746837E+00
21 2    0.1606991684E+01    0.1812980382E+01   -0.1249325829E+01
22 5   -0.4034953128E+01   -0.6312938310E+00    0.1916307880E+01
23 5   -0.4988385789E+01   -0.1702778912E-01    0.5385717582E+00
24 5   -0.4361095064E+01    0.1115635511E+01    0.1780387360E+01
25 5   -0.4286683698E+01    0.3669976380E+01   -0.2352695011E+01
26 5   -0.2232798847E+01    0.3365203216E+01   -0.3749460369E+01
27 5   -0.5547904645E+00    0.1648322278E+01   -0.3112694761E+01
28 5   -0.1130088356E+01    0.1268016702E+01    0.4276558314E+01
29 5   -0.4217440462E+00    0.3624865812E+01    0.3823892600E+01
30 5    0.4983510723E+00    0.4229436237E+01    0.1591744082E+01
31 5    0.1556756952E+01    0.9233717241E+00   -0.8674587202E+00
}
Hamiltonian = DFTB {
  Charge = 0
  SCC = Yes
  NonAufbau = Yes
  GroundGuess = Yes
  SpinPolarisation = Colinear {
    UnpairedElectrons = 0
    RelaxTotalSpin = No
    InitialSpins = {}
  }
  SpinConstants = {
    H = -0.072
    C = -0.023
    N = -0.026
    O = -0.028
    F = -0.028
    ShellResolvedSpin = No
  }
  ThirdOrderFull = Yes
  HCorrection = Damping {
    Exponent = 4.05
  }
  HubbardDerivs = {
    H = -0.1857
    C = -0.1492
    N = -0.1535
    O = -0.1575
    F = -0.1623
  }
  MaxAngularMomentum = {
    H = "s"
    C = "p"
    N = "p"
    O = "p"
    F = "p"
  }
  SlaterKosterFiles = Type2FileNames {
    Prefix = "../dftb_bin/3ob-3-1/"
    Separator = '-'
    Suffix = '.skf'
    LowerCaseTypeName = No
  }
  SpinPurify = Yes
  MOM = No
  PolynomialRepulsive = {}
  OrbitalResolvedSCC = No
  ReadInitialCharges = No
  InitialCharges = {}
  SCCTolerance = 1.0000000000000001E-005
  Mixer = Broyden {
    MixingParameter = 0.20000000000000001
    InverseJacobiWeight = 1.0000000000000000E-002
    MinimalWeight = 1.0000000000000000
    MaximalWeight = 100000.00000000000
    WeightFactor = 1.0000000000000000E-002
  }
  ElectricField = {}
  Filling = Fermi {
    Temperature = 0.0000000000000000
  }
  Eigensolver = RelativelyRobust {}
  MaxSCCIterations = 100
  Dispersion = {}
  ThirdOrder = No
  Differentiation = FiniteDiff {
    Delta = 1.2207031250000000E-004
  }
  ForceEvaluation = "Traditional"
}
ParserOptions = {
  ParserVersion = 6
  WriteHSDInput = Yes
  WriteXMLInput = No
  StopAfterParsing = No
  IgnoreUnprocessedNodes = No
}
Driver = {}
Analysis = {
  ProjectStates = {}
  MullikenAnalysis = Yes
  AtomResolvedEnergies = No
  WriteEigenvectors = No
  WriteBandOut = Yes
  CalculateForces = No
}
ExcitedState = {}
Options = {
  WriteDetailedOut = Yes
  WriteAutotestTag = No
  WriteDetailedXML = No
  WriteResultsTag = No
  RestartFrequency = 20
  RandomSeed = 0
  WriteHS = No
  WriteRealHS = No
  MinimiseMemoryUsage = No
  ShowFoldedCoords = No
  TimingVerbosity = -1
  WriteChargesAsText = No
}
