Geometry = GenFormat {
<<< "983269_Meta.gen"
}

Hamiltonian = DFTB{
  Charge = 0
  SCC = Yes
  NonAufbau = Yes
  GroundGuess = Yes
  SpinPolarisation = Colinear {
    UnpairedElectrons = 0
  }
  SpinConstants = {
    H = -0.072
    C = -0.023
    N = -0.026
    O = -0.028
    F = -0.028
  }
  ThirdOrderFull = Yes
  HCorrection = Damping {
    Exponent = 4.05
  }
  HubbardDerivs {               
    H = -0.1857 
    C = -0.1492          
    N = -0.1535
    O = -0.1575
    F = -0.1623
  } 
  MaxAngularMomentum = {
    H = "s"
    C = "p"
    N = "p"
    O = "p"
    F = "p"
  }
  SlaterKosterFiles = Type2FileNames {
    Prefix = "../dftb_bin/3ob-3-1/"
    Separator = '-'
    Suffix = '.skf'
    LowerCaseTypeName = No
  }
}

