Geometry = GenFormat {
36  C
C  O  N  F  H
1 1    0.5049612946E+01   -0.8906977193E+00   -0.3326842557E+01
2 1    0.3960583515E+01    0.1250556681E-01   -0.2817125799E+01
3 1    0.3794108534E+01    0.1287295261E+01   -0.3370774855E+01
4 1    0.2798045382E+01    0.2167290567E+01   -0.2913067244E+01
5 1    0.2718528810E+01    0.3525403067E+01   -0.3561182458E+01
6 2    0.3425139336E+01    0.3839985559E+01   -0.4506447117E+01
7 2    0.1814997700E+01    0.4410335203E+01   -0.3045202523E+01
8 1    0.1932134079E+01    0.1735616451E+01   -0.1895593464E+01
9 1    0.2071546491E+01    0.4497804123E+00   -0.1346257427E+01
10 3    0.1285277445E+01    0.7311932470E-01   -0.1981241634E+00
11 3    0.2830058919E-01    0.1815158177E+00   -0.2019311884E+00
12 1   -0.7021734838E+00    0.4675352351E+00   -0.1409157859E+01
13 1   -0.5778607200E+00   -0.3722187993E+00   -0.2532560305E+01
14 1   -0.1427632683E+01   -0.1642108040E+00   -0.3624364347E+01
15 4   -0.1309306290E+01   -0.9633259318E+00   -0.4690943051E+01
16 1   -0.2388550380E+01    0.8508751300E+00   -0.3638434246E+01
17 1   -0.2515900015E+01    0.1674404760E+01   -0.2505199348E+01
18 1   -0.3551245031E+01    0.2748268185E+01   -0.2512170283E+01
19 2   -0.4329488143E+01    0.2958907601E+01   -0.3436740442E+01
20 2   -0.3596159806E+01    0.3525540910E+01   -0.1391352643E+01
21 1   -0.1693211624E+01    0.1466341539E+01   -0.1386150869E+01
22 1    0.3109342791E+01   -0.4088820976E+00   -0.1773470674E+01
23 1    0.3257135375E+01   -0.1772814007E+01   -0.1158960147E+01
24 5    0.5767419940E+01   -0.1124612564E+01   -0.2539074747E+01
25 5    0.4642619724E+01   -0.1839752483E+01   -0.3677353033E+01
26 5    0.5588684617E+01   -0.4267780428E+00   -0.4148408389E+01
27 5    0.4448650826E+01    0.1627098602E+01   -0.4169602976E+01
28 5    0.1329686412E+01    0.4057577321E+01   -0.2288421792E+01
29 5    0.1150218076E+01    0.2386364558E+01   -0.1505613137E+01
30 5    0.1561281585E+00   -0.1172100111E+01   -0.2548769185E+01
31 5   -0.3036916570E+01    0.1007011921E+01   -0.4495305693E+01
32 5   -0.4300914243E+01    0.4185316297E+01   -0.1493251006E+01
33 5   -0.1803211930E+01    0.2102162314E+01   -0.5126635551E+00
34 5    0.4298216154E+01   -0.1985014104E+01   -0.9164276894E+00
35 5    0.2664172668E+01   -0.1854595802E+01   -0.2505877891E+00
36 5    0.2925388088E+01   -0.2553539069E+01   -0.1846878232E+01
}
Hamiltonian = DFTB {
  Charge = 0
  SCC = Yes
  NonAufbau = Yes
  GroundGuess = Yes
  SpinPolarisation = Colinear {
    UnpairedElectrons = 0
    RelaxTotalSpin = No
    InitialSpins = {}
  }
  SpinConstants = {
    H = -0.072
    C = -0.023
    N = -0.026
    O = -0.028
    F = -0.028
    ShellResolvedSpin = No
  }
  ThirdOrderFull = Yes
  HCorrection = Damping {
    Exponent = 4.05
  }
  HubbardDerivs = {
    H = -0.1857
    C = -0.1492
    N = -0.1535
    O = -0.1575
    F = -0.1623
  }
  MaxAngularMomentum = {
    H = "s"
    C = "p"
    N = "p"
    O = "p"
    F = "p"
  }
  SlaterKosterFiles = Type2FileNames {
    Prefix = "../dftb_bin/3ob-3-1/"
    Separator = '-'
    Suffix = '.skf'
    LowerCaseTypeName = No
  }
  SpinPurify = Yes
  MOM = No
  PolynomialRepulsive = {}
  OrbitalResolvedSCC = No
  ReadInitialCharges = No
  InitialCharges = {}
  SCCTolerance = 1.0000000000000001E-005
  Mixer = Broyden {
    MixingParameter = 0.20000000000000001
    InverseJacobiWeight = 1.0000000000000000E-002
    MinimalWeight = 1.0000000000000000
    MaximalWeight = 100000.00000000000
    WeightFactor = 1.0000000000000000E-002
  }
  ElectricField = {}
  Filling = Fermi {
    Temperature = 0.0000000000000000
  }
  Eigensolver = RelativelyRobust {}
  MaxSCCIterations = 100
  Dispersion = {}
  ThirdOrder = No
  Differentiation = FiniteDiff {
    Delta = 1.2207031250000000E-004
  }
  ForceEvaluation = "Traditional"
}
ParserOptions = {
  ParserVersion = 6
  WriteHSDInput = Yes
  WriteXMLInput = No
  StopAfterParsing = No
  IgnoreUnprocessedNodes = No
}
Driver = {}
Analysis = {
  ProjectStates = {}
  MullikenAnalysis = Yes
  AtomResolvedEnergies = No
  WriteEigenvectors = No
  WriteBandOut = Yes
  CalculateForces = No
}
ExcitedState = {}
Options = {
  WriteDetailedOut = Yes
  WriteAutotestTag = No
  WriteDetailedXML = No
  WriteResultsTag = No
  RestartFrequency = 20
  RandomSeed = 0
  WriteHS = No
  WriteRealHS = No
  MinimiseMemoryUsage = No
  ShowFoldedCoords = No
  TimingVerbosity = -1
  WriteChargesAsText = No
}
